NAME: PointSet_Angle_25_3
TYPE: TSP
COMMENT: Points chosen discrete uniformly at random out of ${0, \ldots, 500}^2$.
DIMENSION: 25
EDGE_WEIGHT_TYPE: EUC_2D
NODE_COORD_SECTION
1 399 253
2 411 43
3 345 41
4 334 363
5 112 61
6 258 472
7 17 267
8 279 425
9 12 307
10 47 197
11 382 125
12 475 136
13 283 100
14 428 64
15 255 400
16 451 400
17 152 361
18 443 244
19 148 22
20 106 7
21 84 110
22 479 348
23 377 3
24 272 136
25 311 66
EOF
